(set-option :produce-models true)
(set-option :produce-unsat-cores true)
(set-option :produce-interpolants true)
(set-option :interpolant-check-mode true)
(set-option :proof-transformation LU)
(set-logic ALL)
(set-info :source |SMT script generated on 2024-03-31T00:10:41+01:00 by Ultimate (https://ultimate.informatik.uni-freiburg.de/)|)
(set-info :smt-lib-version 2.5)
(set-info :category "industrial")
(set-info :ultimate-id nested_6.c_AllErrorsAtOnce_Iteration13)
(declare-fun |c_old(#valid)| () (Array Int Int))
(declare-fun |c_old(#valid)_primed| () (Array Int Int))
(declare-fun |c_#valid| () (Array Int Int))
(declare-fun |c_#valid_primed| () (Array Int Int))
(declare-fun |c_old(#length)| () (Array Int Int))
(declare-fun |c_old(#length)_primed| () (Array Int Int))
(declare-fun |c_#length| () (Array Int Int))
(declare-fun |c_#length_primed| () (Array Int Int))
(declare-fun |c_old(#memory_int#0)| () (Array Int (Array Int Int)))
(declare-fun |c_old(#memory_int#0)_primed| () (Array Int (Array Int Int)))
(declare-fun |c_#memory_int#0| () (Array Int (Array Int Int)))
(declare-fun |c_#memory_int#0_primed| () (Array Int (Array Int Int)))
(declare-fun |c_old(#StackHeapBarrier)| () Int)
(declare-fun |c_old(#StackHeapBarrier)_primed| () Int)
(declare-fun |c_#StackHeapBarrier| () Int)
(declare-fun |c_#StackHeapBarrier_primed| () Int)
(declare-fun |c_#Ultimate.allocInit_~size| () Int)
(declare-fun |c_#Ultimate.allocInit_~size_primed| () Int)
(declare-fun |c_#Ultimate.allocInit_ptrBase| () Int)
(declare-fun |c_#Ultimate.allocInit_ptrBase_primed| () Int)
(declare-fun |c_read~int#0_#ptr.base| () Int)
(declare-fun |c_read~int#0_#ptr.base_primed| () Int)
(declare-fun |c_read~int#0_#ptr.offset| () Int)
(declare-fun |c_read~int#0_#ptr.offset_primed| () Int)
(declare-fun |c_read~int#0_#sizeOfReadType| () Int)
(declare-fun |c_read~int#0_#sizeOfReadType_primed| () Int)
(declare-fun |c_read~int#0_#value| () Int)
(declare-fun |c_read~int#0_#value_primed| () Int)
(declare-fun |c_ULTIMATE.start_#t~ret10| () Int)
(declare-fun |c_ULTIMATE.start_#t~ret10_primed| () Int)
(declare-fun |c_main_#res| () Int)
(declare-fun |c_main_#res_primed| () Int)
(declare-fun |c_main_#t~pre4| () Int)
(declare-fun |c_main_#t~pre4_primed| () Int)
(declare-fun |c_main_#t~pre5| () Int)
(declare-fun |c_main_#t~pre5_primed| () Int)
(declare-fun |c_main_#t~pre6| () Int)
(declare-fun |c_main_#t~pre6_primed| () Int)
(declare-fun |c_main_#t~pre7| () Int)
(declare-fun |c_main_#t~pre7_primed| () Int)
(declare-fun |c_main_#t~pre8| () Int)
(declare-fun |c_main_#t~pre8_primed| () Int)
(declare-fun |c_main_#t~pre9| () Int)
(declare-fun |c_main_#t~pre9_primed| () Int)
(declare-fun c_main_~a~0 () Int)
(declare-fun c_main_~a~0_primed () Int)
(declare-fun c_main_~b~0 () Int)
(declare-fun c_main_~b~0_primed () Int)
(declare-fun c_main_~c~0 () Int)
(declare-fun c_main_~c~0_primed () Int)
(declare-fun c_main_~d~0 () Int)
(declare-fun c_main_~d~0_primed () Int)
(declare-fun c_main_~e~0 () Int)
(declare-fun c_main_~e~0_primed () Int)
(declare-fun c_main_~f~0 () Int)
(declare-fun c_main_~f~0_primed () Int)
(declare-fun |c_write~int#0_#value| () Int)
(declare-fun |c_write~int#0_#value_primed| () Int)
(declare-fun |c_write~int#0_#ptr.base| () Int)
(declare-fun |c_write~int#0_#ptr.base_primed| () Int)
(declare-fun |c_write~int#0_#ptr.offset| () Int)
(declare-fun |c_write~int#0_#ptr.offset_primed| () Int)
(declare-fun |c_write~int#0_#sizeOfWrittenType| () Int)
(declare-fun |c_write~int#0_#sizeOfWrittenType_primed| () Int)
(declare-fun |c___assert_fail_#in~0.base| () Int)
(declare-fun |c___assert_fail_#in~0.base_primed| () Int)
(declare-fun |c___assert_fail_#in~0.offset| () Int)
(declare-fun |c___assert_fail_#in~0.offset_primed| () Int)
(declare-fun |c___assert_fail_#in~1.base| () Int)
(declare-fun |c___assert_fail_#in~1.base_primed| () Int)
(declare-fun |c___assert_fail_#in~1.offset| () Int)
(declare-fun |c___assert_fail_#in~1.offset_primed| () Int)
(declare-fun |c___assert_fail_#in~2| () Int)
(declare-fun |c___assert_fail_#in~2_primed| () Int)
(declare-fun |c___assert_fail_#in~3.base| () Int)
(declare-fun |c___assert_fail_#in~3.base_primed| () Int)
(declare-fun |c___assert_fail_#in~3.offset| () Int)
(declare-fun |c___assert_fail_#in~3.offset_primed| () Int)
(declare-fun |c_write~init~int#0_#value| () Int)
(declare-fun |c_write~init~int#0_#value_primed| () Int)
(declare-fun |c_write~init~int#0_#ptr.base| () Int)
(declare-fun |c_write~init~int#0_#ptr.base_primed| () Int)
(declare-fun |c_write~init~int#0_#ptr.offset| () Int)
(declare-fun |c_write~init~int#0_#ptr.offset_primed| () Int)
(declare-fun |c_write~init~int#0_#sizeOfWrittenType| () Int)
(declare-fun |c_write~init~int#0_#sizeOfWrittenType_primed| () Int)
(declare-fun c_ULTIMATE.dealloc_~addr.base () Int)
(declare-fun c_ULTIMATE.dealloc_~addr.base_primed () Int)
(declare-fun c_ULTIMATE.dealloc_~addr.offset () Int)
(declare-fun c_ULTIMATE.dealloc_~addr.offset_primed () Int)
(declare-fun |c_aux_v_ULTIMATE.start_#t~ret10_3| () Int)
(echo "starting trace check")
(push 1)
(declare-fun |#memory_int#0_-1| () (Array Int (Array Int Int)))
(declare-fun |#StackHeapBarrier_-1| () Int)
(declare-fun |#length_-1| () (Array Int Int))
(declare-fun |#valid_-1| () (Array Int Int))
(declare-fun main_~f~0_4 () Int)
(declare-fun main_~e~0_4 () Int)
(declare-fun main_~c~0_4 () Int)
(declare-fun main_~d~0_4 () Int)
(declare-fun main_~b~0_4 () Int)
(declare-fun main_~a~0_4 () Int)
(declare-fun main_~b~0_5 () Int)
(declare-fun main_~c~0_6 () Int)
(declare-fun main_~d~0_7 () Int)
(declare-fun main_~e~0_8 () Int)
(declare-fun main_~f~0_9 () Int)
(declare-fun main_~f~0_10 () Int)
(declare-fun |main_#t~pre4_10| () Int)
(declare-fun main_~f~0_11 () Int)
(declare-fun |main_#t~pre4_11| () Int)
(declare-fun main_~e~0_13 () Int)
(declare-fun |main_#t~pre5_13| () Int)
(declare-fun main_~f~0_14 () Int)
(declare-fun main_~f~0_15 () Int)
(declare-fun |main_#t~pre4_15| () Int)
(declare-fun main_~f~0_16 () Int)
(declare-fun |main_#t~pre4_16| () Int)
(declare-fun main_~e~0_18 () Int)
(declare-fun |main_#t~pre5_18| () Int)
(declare-fun main_~d~0_20 () Int)
(declare-fun |main_#t~pre6_20| () Int)
(declare-fun main_~e~0_21 () Int)
(declare-fun main_~f~0_22 () Int)
(declare-fun main_~f~0_23 () Int)
(declare-fun |main_#t~pre4_23| () Int)
(declare-fun main_~f~0_24 () Int)
(declare-fun |main_#t~pre4_24| () Int)
(declare-fun main_~e~0_26 () Int)
(declare-fun |main_#t~pre5_26| () Int)
(declare-fun main_~f~0_27 () Int)
(declare-fun main_~f~0_28 () Int)
(declare-fun |main_#t~pre4_28| () Int)
(declare-fun main_~f~0_29 () Int)
(declare-fun |main_#t~pre4_29| () Int)
(declare-fun main_~e~0_31 () Int)
(declare-fun |main_#t~pre5_31| () Int)
(declare-fun main_~d~0_33 () Int)
(declare-fun |main_#t~pre6_33| () Int)
(declare-fun |main_#t~pre7_35| () Int)
(declare-fun main_~c~0_35 () Int)
(declare-fun main_~d~0_36 () Int)
(declare-fun main_~e~0_37 () Int)
(declare-fun main_~f~0_38 () Int)
(declare-fun main_~f~0_39 () Int)
(declare-fun |main_#t~pre4_39| () Int)
(declare-fun main_~f~0_40 () Int)
(declare-fun |main_#t~pre4_40| () Int)
(declare-fun main_~e~0_42 () Int)
(declare-fun |main_#t~pre5_42| () Int)
(declare-fun main_~f~0_43 () Int)
(declare-fun main_~f~0_44 () Int)
(declare-fun |main_#t~pre4_44| () Int)
(declare-fun main_~f~0_45 () Int)
(declare-fun |main_#t~pre4_45| () Int)
(declare-fun main_~e~0_47 () Int)
(declare-fun |main_#t~pre5_47| () Int)
(declare-fun main_~d~0_49 () Int)
(declare-fun |main_#t~pre6_49| () Int)
(declare-fun main_~e~0_50 () Int)
(declare-fun main_~f~0_51 () Int)
(declare-fun main_~f~0_52 () Int)
(declare-fun |main_#t~pre4_52| () Int)
(declare-fun main_~f~0_53 () Int)
(declare-fun |main_#t~pre4_53| () Int)
(declare-fun main_~e~0_55 () Int)
(declare-fun |main_#t~pre5_55| () Int)
(declare-fun main_~f~0_56 () Int)
(declare-fun main_~f~0_57 () Int)
(declare-fun |main_#t~pre4_57| () Int)
(declare-fun main_~f~0_58 () Int)
(declare-fun |main_#t~pre4_58| () Int)
(declare-fun main_~e~0_60 () Int)
(declare-fun |main_#t~pre5_60| () Int)
(declare-fun main_~d~0_62 () Int)
(declare-fun |main_#t~pre6_62| () Int)
(declare-fun |main_#t~pre7_64| () Int)
(declare-fun main_~c~0_64 () Int)
(declare-fun |main_#t~pre8_66| () Int)
(declare-fun main_~b~0_66 () Int)
(declare-fun main_~c~0_67 () Int)
(declare-fun main_~d~0_68 () Int)
(declare-fun main_~e~0_69 () Int)
(declare-fun main_~f~0_70 () Int)
(declare-fun main_~f~0_71 () Int)
(declare-fun |main_#t~pre4_71| () Int)
(declare-fun main_~f~0_72 () Int)
(declare-fun |main_#t~pre4_72| () Int)
(declare-fun main_~e~0_74 () Int)
(declare-fun |main_#t~pre5_74| () Int)
(declare-fun main_~f~0_75 () Int)
(declare-fun main_~f~0_76 () Int)
(declare-fun |main_#t~pre4_76| () Int)
(declare-fun main_~f~0_77 () Int)
(declare-fun |main_#t~pre4_77| () Int)
(declare-fun main_~e~0_79 () Int)
(declare-fun |main_#t~pre5_79| () Int)
(declare-fun main_~d~0_81 () Int)
(declare-fun |main_#t~pre6_81| () Int)
(declare-fun main_~e~0_82 () Int)
(declare-fun main_~f~0_83 () Int)
(declare-fun main_~f~0_84 () Int)
(declare-fun |main_#t~pre4_84| () Int)
(declare-fun main_~f~0_85 () Int)
(declare-fun |main_#t~pre4_85| () Int)
(declare-fun main_~e~0_87 () Int)
(declare-fun |main_#t~pre5_87| () Int)
(declare-fun main_~f~0_88 () Int)
(declare-fun main_~f~0_89 () Int)
(declare-fun |main_#t~pre4_89| () Int)
(declare-fun main_~f~0_90 () Int)
(declare-fun |main_#t~pre4_90| () Int)
(declare-fun main_~e~0_92 () Int)
(declare-fun |main_#t~pre5_92| () Int)
(declare-fun main_~d~0_94 () Int)
(declare-fun |main_#t~pre6_94| () Int)
(declare-fun |main_#t~pre7_96| () Int)
(declare-fun main_~c~0_96 () Int)
(declare-fun main_~d~0_97 () Int)
(declare-fun main_~e~0_98 () Int)
(declare-fun main_~f~0_99 () Int)
(declare-fun main_~f~0_100 () Int)
(declare-fun |main_#t~pre4_100| () Int)
(declare-fun main_~f~0_101 () Int)
(declare-fun |main_#t~pre4_101| () Int)
(declare-fun main_~e~0_103 () Int)
(declare-fun |main_#t~pre5_103| () Int)
(declare-fun main_~f~0_104 () Int)
(declare-fun main_~f~0_105 () Int)
(declare-fun |main_#t~pre4_105| () Int)
(declare-fun main_~f~0_106 () Int)
(declare-fun |main_#t~pre4_106| () Int)
(declare-fun main_~e~0_108 () Int)
(declare-fun |main_#t~pre5_108| () Int)
(declare-fun main_~d~0_110 () Int)
(declare-fun |main_#t~pre6_110| () Int)
(declare-fun main_~e~0_111 () Int)
(declare-fun main_~f~0_112 () Int)
(declare-fun main_~f~0_113 () Int)
(declare-fun |main_#t~pre4_113| () Int)
(declare-fun main_~f~0_114 () Int)
(declare-fun |main_#t~pre4_114| () Int)
(declare-fun main_~e~0_116 () Int)
(declare-fun |main_#t~pre5_116| () Int)
(declare-fun main_~f~0_117 () Int)
(declare-fun main_~f~0_118 () Int)
(declare-fun |main_#t~pre4_118| () Int)
(declare-fun main_~f~0_119 () Int)
(declare-fun |main_#t~pre4_119| () Int)
(declare-fun main_~e~0_121 () Int)
(declare-fun |main_#t~pre5_121| () Int)
(declare-fun main_~d~0_123 () Int)
(declare-fun |main_#t~pre6_123| () Int)
(declare-fun |main_#t~pre7_125| () Int)
(declare-fun main_~c~0_125 () Int)
(declare-fun |main_#t~pre8_127| () Int)
(declare-fun main_~b~0_127 () Int)
(declare-fun |main_#t~pre9_129| () Int)
(declare-fun main_~a~0_129 () Int)
(declare-fun main_~b~0_130 () Int)
(declare-fun main_~c~0_131 () Int)
(declare-fun main_~d~0_132 () Int)
(declare-fun main_~e~0_133 () Int)
(declare-fun main_~f~0_134 () Int)
(declare-fun main_~f~0_135 () Int)
(declare-fun |main_#t~pre4_135| () Int)
(declare-fun main_~f~0_136 () Int)
(declare-fun |main_#t~pre4_136| () Int)
(declare-fun main_~e~0_138 () Int)
(declare-fun |main_#t~pre5_138| () Int)
(declare-fun main_~f~0_139 () Int)
(declare-fun main_~f~0_140 () Int)
(declare-fun |main_#t~pre4_140| () Int)
(declare-fun main_~f~0_141 () Int)
(declare-fun |main_#t~pre4_141| () Int)
(declare-fun main_~e~0_143 () Int)
(declare-fun |main_#t~pre5_143| () Int)
(declare-fun main_~d~0_145 () Int)
(declare-fun |main_#t~pre6_145| () Int)
(declare-fun main_~e~0_146 () Int)
(declare-fun main_~f~0_147 () Int)
(declare-fun main_~f~0_148 () Int)
(declare-fun |main_#t~pre4_148| () Int)
(declare-fun main_~f~0_149 () Int)
(declare-fun |main_#t~pre4_149| () Int)
(declare-fun main_~e~0_151 () Int)
(declare-fun |main_#t~pre5_151| () Int)
(declare-fun main_~f~0_152 () Int)
(declare-fun main_~f~0_153 () Int)
(declare-fun |main_#t~pre4_153| () Int)
(declare-fun main_~f~0_154 () Int)
(declare-fun |main_#t~pre4_154| () Int)
(declare-fun main_~e~0_156 () Int)
(declare-fun |main_#t~pre5_156| () Int)
(declare-fun main_~d~0_158 () Int)
(declare-fun |main_#t~pre6_158| () Int)
(declare-fun |main_#t~pre7_160| () Int)
(declare-fun main_~c~0_160 () Int)
(declare-fun main_~d~0_161 () Int)
(declare-fun main_~e~0_162 () Int)
(declare-fun main_~f~0_163 () Int)
(declare-fun main_~f~0_164 () Int)
(declare-fun |main_#t~pre4_164| () Int)
(declare-fun main_~f~0_165 () Int)
(declare-fun |main_#t~pre4_165| () Int)
(declare-fun main_~e~0_167 () Int)
(declare-fun |main_#t~pre5_167| () Int)
(declare-fun main_~f~0_168 () Int)
(declare-fun main_~f~0_169 () Int)
(declare-fun |main_#t~pre4_169| () Int)
(declare-fun main_~f~0_170 () Int)
(declare-fun |main_#t~pre4_170| () Int)
(declare-fun main_~e~0_172 () Int)
(declare-fun |main_#t~pre5_172| () Int)
(declare-fun main_~d~0_174 () Int)
(declare-fun |main_#t~pre6_174| () Int)
(declare-fun main_~e~0_175 () Int)
(declare-fun main_~f~0_176 () Int)
(declare-fun main_~f~0_177 () Int)
(declare-fun |main_#t~pre4_177| () Int)
(declare-fun main_~f~0_178 () Int)
(declare-fun |main_#t~pre4_178| () Int)
(declare-fun main_~e~0_180 () Int)
(declare-fun |main_#t~pre5_180| () Int)
(declare-fun main_~f~0_181 () Int)
(declare-fun main_~f~0_182 () Int)
(declare-fun |main_#t~pre4_182| () Int)
(declare-fun main_~f~0_183 () Int)
(declare-fun |main_#t~pre4_183| () Int)
(declare-fun main_~e~0_185 () Int)
(declare-fun |main_#t~pre5_185| () Int)
(declare-fun main_~d~0_187 () Int)
(declare-fun |main_#t~pre6_187| () Int)
(declare-fun |main_#t~pre7_189| () Int)
(declare-fun main_~c~0_189 () Int)
(declare-fun |main_#t~pre8_191| () Int)
(declare-fun main_~b~0_191 () Int)
(declare-fun main_~c~0_192 () Int)
(declare-fun main_~d~0_193 () Int)
(declare-fun main_~e~0_194 () Int)
(declare-fun main_~f~0_195 () Int)
(declare-fun main_~f~0_196 () Int)
(declare-fun |main_#t~pre4_196| () Int)
(declare-fun main_~f~0_197 () Int)
(declare-fun |main_#t~pre4_197| () Int)
(declare-fun main_~e~0_199 () Int)
(declare-fun |main_#t~pre5_199| () Int)
(declare-fun main_~f~0_200 () Int)
(declare-fun main_~f~0_201 () Int)
(declare-fun |main_#t~pre4_201| () Int)
(declare-fun main_~f~0_202 () Int)
(declare-fun |main_#t~pre4_202| () Int)
(declare-fun main_~e~0_204 () Int)
(declare-fun |main_#t~pre5_204| () Int)
(declare-fun main_~d~0_206 () Int)
(declare-fun |main_#t~pre6_206| () Int)
(declare-fun main_~e~0_207 () Int)
(declare-fun main_~f~0_208 () Int)
(declare-fun main_~f~0_209 () Int)
(declare-fun |main_#t~pre4_209| () Int)
(declare-fun main_~f~0_210 () Int)
(declare-fun |main_#t~pre4_210| () Int)
(declare-fun main_~e~0_212 () Int)
(declare-fun |main_#t~pre5_212| () Int)
(declare-fun main_~f~0_213 () Int)
(declare-fun main_~f~0_214 () Int)
(declare-fun |main_#t~pre4_214| () Int)
(declare-fun main_~f~0_215 () Int)
(declare-fun |main_#t~pre4_215| () Int)
(declare-fun main_~e~0_217 () Int)
(declare-fun |main_#t~pre5_217| () Int)
(declare-fun main_~d~0_219 () Int)
(declare-fun |main_#t~pre6_219| () Int)
(declare-fun |main_#t~pre7_221| () Int)
(declare-fun main_~c~0_221 () Int)
(declare-fun main_~d~0_222 () Int)
(declare-fun main_~e~0_223 () Int)
(declare-fun main_~f~0_224 () Int)
(declare-fun main_~f~0_225 () Int)
(declare-fun |main_#t~pre4_225| () Int)
(declare-fun main_~f~0_226 () Int)
(declare-fun |main_#t~pre4_226| () Int)
(declare-fun main_~e~0_228 () Int)
(declare-fun |main_#t~pre5_228| () Int)
(declare-fun main_~f~0_229 () Int)
(declare-fun main_~f~0_230 () Int)
(declare-fun |main_#t~pre4_230| () Int)
(declare-fun main_~f~0_231 () Int)
(declare-fun |main_#t~pre4_231| () Int)
(declare-fun main_~e~0_233 () Int)
(declare-fun |main_#t~pre5_233| () Int)
(declare-fun main_~d~0_235 () Int)
(declare-fun |main_#t~pre6_235| () Int)
(declare-fun main_~e~0_236 () Int)
(declare-fun main_~f~0_237 () Int)
(declare-fun main_~f~0_238 () Int)
(declare-fun |main_#t~pre4_238| () Int)
(declare-fun main_~f~0_239 () Int)
(declare-fun |main_#t~pre4_239| () Int)
(declare-fun main_~e~0_241 () Int)
(declare-fun |main_#t~pre5_241| () Int)
(declare-fun main_~f~0_242 () Int)
(declare-fun main_~f~0_243 () Int)
(declare-fun |main_#t~pre4_243| () Int)
(declare-fun main_~f~0_244 () Int)
(declare-fun |main_#t~pre4_244| () Int)
(declare-fun main_~e~0_246 () Int)
(declare-fun |main_#t~pre5_246| () Int)
(declare-fun main_~d~0_248 () Int)
(declare-fun |main_#t~pre6_248| () Int)
(declare-fun |main_#t~pre7_250| () Int)
(declare-fun main_~c~0_250 () Int)
(declare-fun |main_#t~pre8_252| () Int)
(declare-fun main_~b~0_252 () Int)
(declare-fun |main_#t~pre9_254| () Int)
(declare-fun main_~a~0_254 () Int)
(declare-fun main_~e~0_256 () Int)
(declare-fun main_~f~0_256 () Int)
(declare-fun main_~c~0_256 () Int)
(declare-fun main_~d~0_256 () Int)
(declare-fun main_~b~0_256 () Int)
(declare-fun main_~a~0_256 () Int)
(assert (! true :named ssa_precond))
(assert (! (not false) :named ssa_postcond))
(assert (! true :named ssa_0_GlobVarAssigCall))
(assert (! true :named ssa_0_LocVarAssigCall))
(assert (! true :named ssa_0_OldVarAssigCall))
(assert (! (and (< 0 |#StackHeapBarrier_-1|) (= 12 (select |#length_-1| 3)) (= (select |#valid_-1| 3) 1) (= (select |#valid_-1| 2) 1) (= (select |#valid_-1| 1) 1) (= (select |#length_-1| 2) 11) (= (select (select |#memory_int#0_-1| 1) 1) 0) (= (select |#length_-1| 1) 2) (= (select (select |#memory_int#0_-1| 1) 0) 48) (= (select |#valid_-1| 0) 0)) :named ssa_1))
(assert (! true :named ssa_2_return))
(assert (! true :named ssa_3_GlobVarAssigCall))
(assert (! true :named ssa_3_LocVarAssigCall))
(assert (! true :named ssa_3_OldVarAssigCall))
(assert (! (and (= main_~a~0_4 0) (= main_~d~0_4 6) (= main_~c~0_4 6) (= main_~e~0_4 6) (= main_~b~0_4 6) (= main_~f~0_4 6)) :named ssa_4))
(assert (! (and (< main_~a~0_4 6) (= main_~b~0_5 0)) :named ssa_5))
(assert (! (and (= main_~c~0_6 0) (< main_~b~0_5 6)) :named ssa_6))
(assert (! (and (= main_~d~0_7 0) (< main_~c~0_6 6)) :named ssa_7))
(assert (! (and (= main_~e~0_8 0) (< main_~d~0_7 6)) :named ssa_8))
(assert (! (and (< main_~e~0_8 6) (= main_~f~0_9 0)) :named ssa_9))
(assert (! (and (< main_~f~0_9 6) (= main_~f~0_10 (+ main_~f~0_9 1))) :named ssa_10))
(assert (! (and (< main_~f~0_10 6) (= main_~f~0_11 (+ main_~f~0_10 1))) :named ssa_11))
(assert (! (<= 6 main_~f~0_11) :named ssa_12))
(assert (! (= main_~e~0_13 (+ main_~e~0_8 1)) :named ssa_13))
(assert (! (and (< main_~e~0_13 6) (= main_~f~0_14 0)) :named ssa_14))
(assert (! (and (< main_~f~0_14 6) (= main_~f~0_15 (+ main_~f~0_14 1))) :named ssa_15))
(assert (! (and (< main_~f~0_15 6) (= main_~f~0_16 (+ main_~f~0_15 1))) :named ssa_16))
(assert (! (<= 6 main_~f~0_16) :named ssa_17))
(assert (! (= main_~e~0_18 (+ main_~e~0_13 1)) :named ssa_18))
(assert (! (<= 6 main_~e~0_18) :named ssa_19))
(assert (! (= main_~d~0_20 (+ main_~d~0_7 1)) :named ssa_20))
(assert (! (and (= main_~e~0_21 0) (< main_~d~0_20 6)) :named ssa_21))
(assert (! (and (< main_~e~0_21 6) (= main_~f~0_22 0)) :named ssa_22))
(assert (! (and (< main_~f~0_22 6) (= main_~f~0_23 (+ main_~f~0_22 1))) :named ssa_23))
(assert (! (and (< main_~f~0_23 6) (= main_~f~0_24 (+ main_~f~0_23 1))) :named ssa_24))
(assert (! (<= 6 main_~f~0_24) :named ssa_25))
(assert (! (= main_~e~0_26 (+ main_~e~0_21 1)) :named ssa_26))
(assert (! (and (< main_~e~0_26 6) (= main_~f~0_27 0)) :named ssa_27))
(assert (! (and (< main_~f~0_27 6) (= main_~f~0_28 (+ main_~f~0_27 1))) :named ssa_28))
(assert (! (and (< main_~f~0_28 6) (= main_~f~0_29 (+ main_~f~0_28 1))) :named ssa_29))
(assert (! (<= 6 main_~f~0_29) :named ssa_30))
(assert (! (= main_~e~0_31 (+ main_~e~0_26 1)) :named ssa_31))
(assert (! (<= 6 main_~e~0_31) :named ssa_32))
(assert (! (= main_~d~0_33 (+ main_~d~0_20 1)) :named ssa_33))
(assert (! (<= 6 main_~d~0_33) :named ssa_34))
(assert (! (= (+ main_~c~0_6 1) main_~c~0_35) :named ssa_35))
(assert (! (and (= main_~d~0_36 0) (< main_~c~0_35 6)) :named ssa_36))
(assert (! (and (= main_~e~0_37 0) (< main_~d~0_36 6)) :named ssa_37))
(assert (! (and (< main_~e~0_37 6) (= main_~f~0_38 0)) :named ssa_38))
(assert (! (and (< main_~f~0_38 6) (= main_~f~0_39 (+ main_~f~0_38 1))) :named ssa_39))
(assert (! (and (< main_~f~0_39 6) (= main_~f~0_40 (+ main_~f~0_39 1))) :named ssa_40))
(assert (! (<= 6 main_~f~0_40) :named ssa_41))
(assert (! (= main_~e~0_42 (+ main_~e~0_37 1)) :named ssa_42))
(assert (! (and (< main_~e~0_42 6) (= main_~f~0_43 0)) :named ssa_43))
(assert (! (and (< main_~f~0_43 6) (= main_~f~0_44 (+ main_~f~0_43 1))) :named ssa_44))
(assert (! (and (< main_~f~0_44 6) (= main_~f~0_45 (+ main_~f~0_44 1))) :named ssa_45))
(assert (! (<= 6 main_~f~0_45) :named ssa_46))
(assert (! (= main_~e~0_47 (+ main_~e~0_42 1)) :named ssa_47))
(assert (! (<= 6 main_~e~0_47) :named ssa_48))
(assert (! (= main_~d~0_49 (+ main_~d~0_36 1)) :named ssa_49))
(assert (! (and (= main_~e~0_50 0) (< main_~d~0_49 6)) :named ssa_50))
(assert (! (and (< main_~e~0_50 6) (= main_~f~0_51 0)) :named ssa_51))
(assert (! (and (< main_~f~0_51 6) (= main_~f~0_52 (+ main_~f~0_51 1))) :named ssa_52))
(assert (! (and (< main_~f~0_52 6) (= main_~f~0_53 (+ main_~f~0_52 1))) :named ssa_53))
(assert (! (<= 6 main_~f~0_53) :named ssa_54))
(assert (! (= main_~e~0_55 (+ main_~e~0_50 1)) :named ssa_55))
(assert (! (and (< main_~e~0_55 6) (= main_~f~0_56 0)) :named ssa_56))
(assert (! (and (< main_~f~0_56 6) (= main_~f~0_57 (+ main_~f~0_56 1))) :named ssa_57))
(assert (! (and (< main_~f~0_57 6) (= main_~f~0_58 (+ main_~f~0_57 1))) :named ssa_58))
(assert (! (<= 6 main_~f~0_58) :named ssa_59))
(assert (! (= main_~e~0_60 (+ main_~e~0_55 1)) :named ssa_60))
(assert (! (<= 6 main_~e~0_60) :named ssa_61))
(assert (! (= main_~d~0_62 (+ main_~d~0_49 1)) :named ssa_62))
(assert (! (<= 6 main_~d~0_62) :named ssa_63))
(assert (! (= (+ main_~c~0_35 1) main_~c~0_64) :named ssa_64))
(assert (! (<= 6 main_~c~0_64) :named ssa_65))
(assert (! (= main_~b~0_66 (+ main_~b~0_5 1)) :named ssa_66))
(assert (! (and (= main_~c~0_67 0) (< main_~b~0_66 6)) :named ssa_67))
(assert (! (and (= main_~d~0_68 0) (< main_~c~0_67 6)) :named ssa_68))
(assert (! (and (= main_~e~0_69 0) (< main_~d~0_68 6)) :named ssa_69))
(assert (! (and (< main_~e~0_69 6) (= main_~f~0_70 0)) :named ssa_70))
(assert (! (and (< main_~f~0_70 6) (= main_~f~0_71 (+ main_~f~0_70 1))) :named ssa_71))
(assert (! (and (< main_~f~0_71 6) (= main_~f~0_72 (+ main_~f~0_71 1))) :named ssa_72))
(assert (! (<= 6 main_~f~0_72) :named ssa_73))
(assert (! (= main_~e~0_74 (+ main_~e~0_69 1)) :named ssa_74))
(assert (! (and (< main_~e~0_74 6) (= main_~f~0_75 0)) :named ssa_75))
(assert (! (and (< main_~f~0_75 6) (= main_~f~0_76 (+ main_~f~0_75 1))) :named ssa_76))
(assert (! (and (< main_~f~0_76 6) (= main_~f~0_77 (+ main_~f~0_76 1))) :named ssa_77))
(assert (! (<= 6 main_~f~0_77) :named ssa_78))
(assert (! (= main_~e~0_79 (+ main_~e~0_74 1)) :named ssa_79))
(assert (! (<= 6 main_~e~0_79) :named ssa_80))
(assert (! (= main_~d~0_81 (+ main_~d~0_68 1)) :named ssa_81))
(assert (! (and (= main_~e~0_82 0) (< main_~d~0_81 6)) :named ssa_82))
(assert (! (and (< main_~e~0_82 6) (= main_~f~0_83 0)) :named ssa_83))
(assert (! (and (< main_~f~0_83 6) (= main_~f~0_84 (+ main_~f~0_83 1))) :named ssa_84))
(assert (! (and (< main_~f~0_84 6) (= main_~f~0_85 (+ main_~f~0_84 1))) :named ssa_85))
(assert (! (<= 6 main_~f~0_85) :named ssa_86))
(assert (! (= main_~e~0_87 (+ main_~e~0_82 1)) :named ssa_87))
(assert (! (and (< main_~e~0_87 6) (= main_~f~0_88 0)) :named ssa_88))
(assert (! (and (< main_~f~0_88 6) (= main_~f~0_89 (+ main_~f~0_88 1))) :named ssa_89))
(assert (! (and (< main_~f~0_89 6) (= main_~f~0_90 (+ main_~f~0_89 1))) :named ssa_90))
(assert (! (<= 6 main_~f~0_90) :named ssa_91))
(assert (! (= main_~e~0_92 (+ main_~e~0_87 1)) :named ssa_92))
(assert (! (<= 6 main_~e~0_92) :named ssa_93))
(assert (! (= main_~d~0_94 (+ main_~d~0_81 1)) :named ssa_94))
(assert (! (<= 6 main_~d~0_94) :named ssa_95))
(assert (! (= (+ main_~c~0_67 1) main_~c~0_96) :named ssa_96))
(assert (! (and (= main_~d~0_97 0) (< main_~c~0_96 6)) :named ssa_97))
(assert (! (and (= main_~e~0_98 0) (< main_~d~0_97 6)) :named ssa_98))
(assert (! (and (< main_~e~0_98 6) (= main_~f~0_99 0)) :named ssa_99))
(assert (! (and (< main_~f~0_99 6) (= main_~f~0_100 (+ main_~f~0_99 1))) :named ssa_100))
(assert (! (and (< main_~f~0_100 6) (= main_~f~0_101 (+ main_~f~0_100 1))) :named ssa_101))
(assert (! (<= 6 main_~f~0_101) :named ssa_102))
(assert (! (= main_~e~0_103 (+ main_~e~0_98 1)) :named ssa_103))
(assert (! (and (< main_~e~0_103 6) (= main_~f~0_104 0)) :named ssa_104))
(assert (! (and (< main_~f~0_104 6) (= main_~f~0_105 (+ main_~f~0_104 1))) :named ssa_105))
(assert (! (and (< main_~f~0_105 6) (= main_~f~0_106 (+ main_~f~0_105 1))) :named ssa_106))
(assert (! (<= 6 main_~f~0_106) :named ssa_107))
(assert (! (= main_~e~0_108 (+ main_~e~0_103 1)) :named ssa_108))
(assert (! (<= 6 main_~e~0_108) :named ssa_109))
(assert (! (= main_~d~0_110 (+ main_~d~0_97 1)) :named ssa_110))
(assert (! (and (= main_~e~0_111 0) (< main_~d~0_110 6)) :named ssa_111))
(assert (! (and (< main_~e~0_111 6) (= main_~f~0_112 0)) :named ssa_112))
(assert (! (and (< main_~f~0_112 6) (= main_~f~0_113 (+ main_~f~0_112 1))) :named ssa_113))
(assert (! (and (< main_~f~0_113 6) (= main_~f~0_114 (+ main_~f~0_113 1))) :named ssa_114))
(assert (! (<= 6 main_~f~0_114) :named ssa_115))
(assert (! (= main_~e~0_116 (+ main_~e~0_111 1)) :named ssa_116))
(assert (! (and (< main_~e~0_116 6) (= main_~f~0_117 0)) :named ssa_117))
(assert (! (and (< main_~f~0_117 6) (= main_~f~0_118 (+ main_~f~0_117 1))) :named ssa_118))
(assert (! (and (< main_~f~0_118 6) (= main_~f~0_119 (+ main_~f~0_118 1))) :named ssa_119))
(assert (! (<= 6 main_~f~0_119) :named ssa_120))
(assert (! (= main_~e~0_121 (+ main_~e~0_116 1)) :named ssa_121))
(assert (! (<= 6 main_~e~0_121) :named ssa_122))
(assert (! (= main_~d~0_123 (+ main_~d~0_110 1)) :named ssa_123))
(assert (! (<= 6 main_~d~0_123) :named ssa_124))
(assert (! (= (+ main_~c~0_96 1) main_~c~0_125) :named ssa_125))
(assert (! (<= 6 main_~c~0_125) :named ssa_126))
(assert (! (= main_~b~0_127 (+ main_~b~0_66 1)) :named ssa_127))
(assert (! (<= 6 main_~b~0_127) :named ssa_128))
(assert (! (= main_~a~0_129 (+ main_~a~0_4 1)) :named ssa_129))
(assert (! (and (< main_~a~0_129 6) (= main_~b~0_130 0)) :named ssa_130))
(assert (! (and (= main_~c~0_131 0) (< main_~b~0_130 6)) :named ssa_131))
(assert (! (and (= main_~d~0_132 0) (< main_~c~0_131 6)) :named ssa_132))
(assert (! (and (= main_~e~0_133 0) (< main_~d~0_132 6)) :named ssa_133))
(assert (! (and (< main_~e~0_133 6) (= main_~f~0_134 0)) :named ssa_134))
(assert (! (and (< main_~f~0_134 6) (= main_~f~0_135 (+ main_~f~0_134 1))) :named ssa_135))
(assert (! (and (< main_~f~0_135 6) (= main_~f~0_136 (+ main_~f~0_135 1))) :named ssa_136))
(assert (! (<= 6 main_~f~0_136) :named ssa_137))
(assert (! (= main_~e~0_138 (+ main_~e~0_133 1)) :named ssa_138))
(assert (! (and (< main_~e~0_138 6) (= main_~f~0_139 0)) :named ssa_139))
(assert (! (and (< main_~f~0_139 6) (= main_~f~0_140 (+ main_~f~0_139 1))) :named ssa_140))
(assert (! (and (< main_~f~0_140 6) (= main_~f~0_141 (+ main_~f~0_140 1))) :named ssa_141))
(assert (! (<= 6 main_~f~0_141) :named ssa_142))
(assert (! (= main_~e~0_143 (+ main_~e~0_138 1)) :named ssa_143))
(assert (! (<= 6 main_~e~0_143) :named ssa_144))
(assert (! (= main_~d~0_145 (+ main_~d~0_132 1)) :named ssa_145))
(assert (! (and (= main_~e~0_146 0) (< main_~d~0_145 6)) :named ssa_146))
(assert (! (and (< main_~e~0_146 6) (= main_~f~0_147 0)) :named ssa_147))
(assert (! (and (< main_~f~0_147 6) (= main_~f~0_148 (+ main_~f~0_147 1))) :named ssa_148))
(assert (! (and (< main_~f~0_148 6) (= main_~f~0_149 (+ main_~f~0_148 1))) :named ssa_149))
(assert (! (<= 6 main_~f~0_149) :named ssa_150))
(assert (! (= main_~e~0_151 (+ main_~e~0_146 1)) :named ssa_151))
(assert (! (and (< main_~e~0_151 6) (= main_~f~0_152 0)) :named ssa_152))
(assert (! (and (< main_~f~0_152 6) (= main_~f~0_153 (+ main_~f~0_152 1))) :named ssa_153))
(assert (! (and (< main_~f~0_153 6) (= main_~f~0_154 (+ main_~f~0_153 1))) :named ssa_154))
(assert (! (<= 6 main_~f~0_154) :named ssa_155))
(assert (! (= main_~e~0_156 (+ main_~e~0_151 1)) :named ssa_156))
(assert (! (<= 6 main_~e~0_156) :named ssa_157))
(assert (! (= main_~d~0_158 (+ main_~d~0_145 1)) :named ssa_158))
(assert (! (<= 6 main_~d~0_158) :named ssa_159))
(assert (! (= (+ main_~c~0_131 1) main_~c~0_160) :named ssa_160))
(assert (! (and (= main_~d~0_161 0) (< main_~c~0_160 6)) :named ssa_161))
(assert (! (and (= main_~e~0_162 0) (< main_~d~0_161 6)) :named ssa_162))
(assert (! (and (< main_~e~0_162 6) (= main_~f~0_163 0)) :named ssa_163))
(assert (! (and (< main_~f~0_163 6) (= main_~f~0_164 (+ main_~f~0_163 1))) :named ssa_164))
(assert (! (and (< main_~f~0_164 6) (= main_~f~0_165 (+ main_~f~0_164 1))) :named ssa_165))
(assert (! (<= 6 main_~f~0_165) :named ssa_166))
(assert (! (= main_~e~0_167 (+ main_~e~0_162 1)) :named ssa_167))
(assert (! (and (< main_~e~0_167 6) (= main_~f~0_168 0)) :named ssa_168))
(assert (! (and (< main_~f~0_168 6) (= main_~f~0_169 (+ main_~f~0_168 1))) :named ssa_169))
(assert (! (and (< main_~f~0_169 6) (= main_~f~0_170 (+ main_~f~0_169 1))) :named ssa_170))
(assert (! (<= 6 main_~f~0_170) :named ssa_171))
(assert (! (= main_~e~0_172 (+ main_~e~0_167 1)) :named ssa_172))
(assert (! (<= 6 main_~e~0_172) :named ssa_173))
(assert (! (= main_~d~0_174 (+ main_~d~0_161 1)) :named ssa_174))
(assert (! (and (= main_~e~0_175 0) (< main_~d~0_174 6)) :named ssa_175))
(assert (! (and (< main_~e~0_175 6) (= main_~f~0_176 0)) :named ssa_176))
(assert (! (and (< main_~f~0_176 6) (= main_~f~0_177 (+ main_~f~0_176 1))) :named ssa_177))
(assert (! (and (< main_~f~0_177 6) (= main_~f~0_178 (+ main_~f~0_177 1))) :named ssa_178))
(assert (! (<= 6 main_~f~0_178) :named ssa_179))
(assert (! (= main_~e~0_180 (+ main_~e~0_175 1)) :named ssa_180))
(assert (! (and (< main_~e~0_180 6) (= main_~f~0_181 0)) :named ssa_181))
(assert (! (and (< main_~f~0_181 6) (= main_~f~0_182 (+ main_~f~0_181 1))) :named ssa_182))
(assert (! (and (< main_~f~0_182 6) (= main_~f~0_183 (+ main_~f~0_182 1))) :named ssa_183))
(assert (! (<= 6 main_~f~0_183) :named ssa_184))
(assert (! (= main_~e~0_185 (+ main_~e~0_180 1)) :named ssa_185))
(assert (! (<= 6 main_~e~0_185) :named ssa_186))
(assert (! (= main_~d~0_187 (+ main_~d~0_174 1)) :named ssa_187))
(assert (! (<= 6 main_~d~0_187) :named ssa_188))
(assert (! (= (+ main_~c~0_160 1) main_~c~0_189) :named ssa_189))
(assert (! (<= 6 main_~c~0_189) :named ssa_190))
(assert (! (= main_~b~0_191 (+ main_~b~0_130 1)) :named ssa_191))
(assert (! (and (= main_~c~0_192 0) (< main_~b~0_191 6)) :named ssa_192))
(assert (! (and (= main_~d~0_193 0) (< main_~c~0_192 6)) :named ssa_193))
(assert (! (and (= main_~e~0_194 0) (< main_~d~0_193 6)) :named ssa_194))
(assert (! (and (< main_~e~0_194 6) (= main_~f~0_195 0)) :named ssa_195))
(assert (! (and (< main_~f~0_195 6) (= main_~f~0_196 (+ main_~f~0_195 1))) :named ssa_196))
(assert (! (and (< main_~f~0_196 6) (= main_~f~0_197 (+ main_~f~0_196 1))) :named ssa_197))
(assert (! (<= 6 main_~f~0_197) :named ssa_198))
(assert (! (= main_~e~0_199 (+ main_~e~0_194 1)) :named ssa_199))
(assert (! (and (< main_~e~0_199 6) (= main_~f~0_200 0)) :named ssa_200))
(assert (! (and (< main_~f~0_200 6) (= main_~f~0_201 (+ main_~f~0_200 1))) :named ssa_201))
(assert (! (and (< main_~f~0_201 6) (= main_~f~0_202 (+ main_~f~0_201 1))) :named ssa_202))
(assert (! (<= 6 main_~f~0_202) :named ssa_203))
(assert (! (= main_~e~0_204 (+ main_~e~0_199 1)) :named ssa_204))
(assert (! (<= 6 main_~e~0_204) :named ssa_205))
(assert (! (= main_~d~0_206 (+ main_~d~0_193 1)) :named ssa_206))
(assert (! (and (= main_~e~0_207 0) (< main_~d~0_206 6)) :named ssa_207))
(assert (! (and (< main_~e~0_207 6) (= main_~f~0_208 0)) :named ssa_208))
(assert (! (and (< main_~f~0_208 6) (= main_~f~0_209 (+ main_~f~0_208 1))) :named ssa_209))
(assert (! (and (< main_~f~0_209 6) (= main_~f~0_210 (+ main_~f~0_209 1))) :named ssa_210))
(assert (! (<= 6 main_~f~0_210) :named ssa_211))
(assert (! (= main_~e~0_212 (+ main_~e~0_207 1)) :named ssa_212))
(assert (! (and (< main_~e~0_212 6) (= main_~f~0_213 0)) :named ssa_213))
(assert (! (and (< main_~f~0_213 6) (= main_~f~0_214 (+ main_~f~0_213 1))) :named ssa_214))
(assert (! (and (< main_~f~0_214 6) (= main_~f~0_215 (+ main_~f~0_214 1))) :named ssa_215))
(assert (! (<= 6 main_~f~0_215) :named ssa_216))
(assert (! (= main_~e~0_217 (+ main_~e~0_212 1)) :named ssa_217))
(assert (! (<= 6 main_~e~0_217) :named ssa_218))
(assert (! (= main_~d~0_219 (+ main_~d~0_206 1)) :named ssa_219))
(assert (! (<= 6 main_~d~0_219) :named ssa_220))
(assert (! (= (+ main_~c~0_192 1) main_~c~0_221) :named ssa_221))
(assert (! (and (= main_~d~0_222 0) (< main_~c~0_221 6)) :named ssa_222))
(assert (! (and (= main_~e~0_223 0) (< main_~d~0_222 6)) :named ssa_223))
(assert (! (and (< main_~e~0_223 6) (= main_~f~0_224 0)) :named ssa_224))
(assert (! (and (< main_~f~0_224 6) (= main_~f~0_225 (+ main_~f~0_224 1))) :named ssa_225))
(assert (! (and (< main_~f~0_225 6) (= main_~f~0_226 (+ main_~f~0_225 1))) :named ssa_226))
(assert (! (<= 6 main_~f~0_226) :named ssa_227))
(assert (! (= main_~e~0_228 (+ main_~e~0_223 1)) :named ssa_228))
(assert (! (and (< main_~e~0_228 6) (= main_~f~0_229 0)) :named ssa_229))
(assert (! (and (< main_~f~0_229 6) (= main_~f~0_230 (+ main_~f~0_229 1))) :named ssa_230))
(assert (! (and (< main_~f~0_230 6) (= main_~f~0_231 (+ main_~f~0_230 1))) :named ssa_231))
(assert (! (<= 6 main_~f~0_231) :named ssa_232))
(assert (! (= main_~e~0_233 (+ main_~e~0_228 1)) :named ssa_233))
(assert (! (<= 6 main_~e~0_233) :named ssa_234))
(assert (! (= main_~d~0_235 (+ main_~d~0_222 1)) :named ssa_235))
(assert (! (and (= main_~e~0_236 0) (< main_~d~0_235 6)) :named ssa_236))
(assert (! (and (< main_~e~0_236 6) (= main_~f~0_237 0)) :named ssa_237))
(assert (! (and (< main_~f~0_237 6) (= main_~f~0_238 (+ main_~f~0_237 1))) :named ssa_238))
(assert (! (and (< main_~f~0_238 6) (= main_~f~0_239 (+ main_~f~0_238 1))) :named ssa_239))
(assert (! (<= 6 main_~f~0_239) :named ssa_240))
(assert (! (= main_~e~0_241 (+ main_~e~0_236 1)) :named ssa_241))
(assert (! (and (< main_~e~0_241 6) (= main_~f~0_242 0)) :named ssa_242))
(assert (! (and (< main_~f~0_242 6) (= main_~f~0_243 (+ main_~f~0_242 1))) :named ssa_243))
(assert (! (and (< main_~f~0_243 6) (= main_~f~0_244 (+ main_~f~0_243 1))) :named ssa_244))
(assert (! (<= 6 main_~f~0_244) :named ssa_245))
(assert (! (= main_~e~0_246 (+ main_~e~0_241 1)) :named ssa_246))
(assert (! (<= 6 main_~e~0_246) :named ssa_247))
(assert (! (= main_~d~0_248 (+ main_~d~0_235 1)) :named ssa_248))
(assert (! (<= 6 main_~d~0_248) :named ssa_249))
(assert (! (= (+ main_~c~0_221 1) main_~c~0_250) :named ssa_250))
(assert (! (<= 6 main_~c~0_250) :named ssa_251))
(assert (! (= main_~b~0_252 (+ main_~b~0_191 1)) :named ssa_252))
(assert (! (<= 6 main_~b~0_252) :named ssa_253))
(assert (! (= main_~a~0_254 (+ main_~a~0_129 1)) :named ssa_254))
(assert (! (<= 6 main_~a~0_254) :named ssa_255))
(assert (! (or (not (= main_~c~0_250 6)) (not (= main_~d~0_248 6)) (not (= main_~a~0_254 6)) (not (= main_~f~0_244 6)) (not (= main_~e~0_246 6)) (not (= main_~b~0_252 6))) :named ssa_256))
(assert (! true :named ssa_257))
(check-sat)
(get-interpolants (and ssa_0_LocVarAssigCall ssa_precond ssa_0_GlobVarAssigCall ssa_0_OldVarAssigCall ssa_2_return ssa_1) (and ssa_3_OldVarAssigCall ssa_3_LocVarAssigCall ssa_3_GlobVarAssigCall) ssa_4 ssa_5 ssa_6 ssa_7 ssa_8 ssa_9 ssa_10 ssa_11 ssa_12 ssa_13 ssa_14 ssa_15 ssa_16 ssa_17 ssa_18 ssa_19 ssa_20 ssa_21 ssa_22 ssa_23 ssa_24 ssa_25 ssa_26 ssa_27 ssa_28 ssa_29 ssa_30 ssa_31 ssa_32 ssa_33 ssa_34 ssa_35 ssa_36 ssa_37 ssa_38 ssa_39 ssa_40 ssa_41 ssa_42 ssa_43 ssa_44 ssa_45 ssa_46 ssa_47 ssa_48 ssa_49 ssa_50 ssa_51 ssa_52 ssa_53 ssa_54 ssa_55 ssa_56 ssa_57 ssa_58 ssa_59 ssa_60 ssa_61 ssa_62 ssa_63 ssa_64 ssa_65 ssa_66 ssa_67 ssa_68 ssa_69 ssa_70 ssa_71 ssa_72 ssa_73 ssa_74 ssa_75 ssa_76 ssa_77 ssa_78 ssa_79 ssa_80 ssa_81 ssa_82 ssa_83 ssa_84 ssa_85 ssa_86 ssa_87 ssa_88 ssa_89 ssa_90 ssa_91 ssa_92 ssa_93 ssa_94 ssa_95 ssa_96 ssa_97 ssa_98 ssa_99 ssa_100 ssa_101 ssa_102 ssa_103 ssa_104 ssa_105 ssa_106 ssa_107 ssa_108 ssa_109 ssa_110 ssa_111 ssa_112 ssa_113 ssa_114 ssa_115 ssa_116 ssa_117 ssa_118 ssa_119 ssa_120 ssa_121 ssa_122 ssa_123 ssa_124 ssa_125 ssa_126 ssa_127 ssa_128 ssa_129 ssa_130 ssa_131 ssa_132 ssa_133 ssa_134 ssa_135 ssa_136 ssa_137 ssa_138 ssa_139 ssa_140 ssa_141 ssa_142 ssa_143 ssa_144 ssa_145 ssa_146 ssa_147 ssa_148 ssa_149 ssa_150 ssa_151 ssa_152 ssa_153 ssa_154 ssa_155 ssa_156 ssa_157 ssa_158 ssa_159 ssa_160 ssa_161 ssa_162 ssa_163 ssa_164 ssa_165 ssa_166 ssa_167 ssa_168 ssa_169 ssa_170 ssa_171 ssa_172 ssa_173 ssa_174 ssa_175 ssa_176 ssa_177 ssa_178 ssa_179 ssa_180 ssa_181 ssa_182 ssa_183 ssa_184 ssa_185 ssa_186 ssa_187 ssa_188 ssa_189 ssa_190 ssa_191 ssa_192 ssa_193 ssa_194 ssa_195 ssa_196 ssa_197 ssa_198 ssa_199 ssa_200 ssa_201 ssa_202 ssa_203 ssa_204 ssa_205 ssa_206 ssa_207 ssa_208 ssa_209 ssa_210 ssa_211 ssa_212 ssa_213 ssa_214 ssa_215 ssa_216 ssa_217 ssa_218 ssa_219 ssa_220 ssa_221 ssa_222 ssa_223 ssa_224 ssa_225 ssa_226 ssa_227 ssa_228 ssa_229 ssa_230 ssa_231 ssa_232 ssa_233 ssa_234 ssa_235 ssa_236 ssa_237 ssa_238 ssa_239 ssa_240 ssa_241 ssa_242 ssa_243 ssa_244 ssa_245 ssa_246 ssa_247 ssa_248 ssa_249 ssa_250 ssa_251 ssa_252 ssa_253 ssa_254 ssa_255 ssa_256 (and ssa_257 ssa_postcond))
(echo "finished trace check")
(pop 1)
(echo "starting trace check")
(push 1)
(declare-fun |#memory_int#0_-1| () (Array Int (Array Int Int)))
(declare-fun |#StackHeapBarrier_-1| () Int)
(declare-fun |#length_-1| () (Array Int Int))
(declare-fun |#valid_-1| () (Array Int Int))
(assert (! true :named ssa_precond))
(assert (! (not true) :named ssa_postcond))
(assert (! (and (< 0 |#StackHeapBarrier_-1|) (= 12 (select |#length_-1| 3)) (= (select |#valid_-1| 3) 1) (= (select |#valid_-1| 2) 1) (= (select |#valid_-1| 1) 1) (= (select |#length_-1| 2) 11) (= (select (select |#memory_int#0_-1| 1) 1) 0) (= (select |#length_-1| 1) 2) (= (select (select |#memory_int#0_-1| 1) 0) 48) (= (select |#valid_-1| 0) 0)) :named ssa_0))
(assert (! true :named ssa_1_return))
(assert (! true :named ssa_-2_PendingContext))
(assert (! true :named ssa_-2_LocVarAssignPendingContext))
(assert (! true :named ssa_-2_OldVarAssignPendingContext))
(check-sat)
(get-interpolants (and ssa_0 ssa_precond) (and ssa_-2_PendingContext ssa_-2_LocVarAssignPendingContext ssa_-2_OldVarAssignPendingContext ssa_1_return ssa_postcond))
(echo "finished trace check")
(pop 1)
(exit)
